
  22   10
  10   10   10   10   10   10   10   10   10   10

   0   0   0   0   0   0   0   0   0   0   0  13 2 3 4 5 13 14 15 16 17 18 19 20 21 
   9  10   0   0   0   0   0   0   0   0   0   3 12 11 7 
   7   0   0   0  10   0   0   0   0   0   0   2 10 9 
   8   0   0   0   0   0   0   0  10   0   0   2 8 6 
   3   0   0   0   0   0   0  10   0   0   0   2 7 6 
   6   0   0   0  10   0   0   0   0   0   0   1 22
   8   0  10   0   0   0   0   0   0   0   0   1 22
   9  10   0   0   0   0   0   0   0   0   0   1 22
  10   0   0   0   0   0   0   0   0   0  10   1 22
   8   0   0   0   0   0   0   0   0  10   0   1 22
   3   0   0   0   0   0   0   0  10   0   0   1 22
   6   0   0   0   0  10   0   0   0   0   0   1 22
   4   0   0   0   0   0   0   0  10   0   0   1 22
   1   0   0   0   0   0  10   0   0   0   0   1 22
  10   0  10   0   0   0   0   0   0   0   0   1 22
   2   0   0   0   0   0  10   0   0   0   0   1 22
   3   0   0   0   0   0   0   0  10   0   0   1 22
   8   0   0  10   0   0   0   0   0   0   0   1 22
   2   0   0   0   0   0   0  10   0   0   0   1 22
   2   0   0   0   0   0   0  10   0   0   0   1 22
  10   0   0   0  10   0   0   0   0   0   0   1 22
   0   0   0   0   0   0   0   0   0   0   0   0 
